\ This file has been generated by DOcplex
\ ENCODING=ISO-8859-1
\Problem name: random_problem.lp

Minimize
 obj: - 9 x0 - 4 x1 - 8 x2 + 5 x3 + x4 - 3 x5 + 8 x6 + 8 x7 - 10 x9 + x10
      - 8 x11 - 5 x12 + 4 x13 - 2 x14 - 9 x15 - 2 x16 + 7 x17 + 6 x18 - 9 x20
      + 5 x21 - 7 x22 + 2 x23 + [ - 12 x0*x5 + 6 x0*x9 + 8 x0*x13 - 12 x0*x15
      - 4 x0*x21 - 18 x1*x3 - 2 x1*x4 + 12 x1*x7 + 20 x1*x9 + 10 x1*x23
      - 12 x2*x7 - 2 x2*x15 - 18 x2*x17 + 20 x2*x20 - 20 x2*x21 + 20 x3*x13
      - 2 x3*x16 + 16 x3*x19 + 10 x3*x23 - 18 x4*x8 + 10 x4*x9 - 6 x4*x10
      - 8 x4*x15 - 4 x5*x10 + 4 x5*x12 - 14 x5*x17 - 4 x5*x22 + 20 x6*x16
      - 12 x6*x17 - 18 x6*x18 + 10 x6*x19 - 20 x6*x23 + 2 x7*x8 - 10 x7*x11
      - 20 x7*x19 + 18 x8*x10 + 6 x8*x13 - 2 x8*x22 + 4 x9*x12 + 6 x9*x18
      - 18 x10*x14 - 14 x10*x18 + 10 x11*x15 - 10 x11*x16 + 14 x11*x20
      + 8 x11*x23 + 2 x12*x17 - 8 x12*x19 - 16 x12*x20 + 10 x13*x14 - 14 x13*x17
      - 16 x14*x19 - 2 x14*x20 + 6 x14*x22 - 10 x15*x18 - 8 x16*x18 - 20 x16*x21
      - 4 x20*x22 + 18 x21*x22 + 10 x21*x23 ]/2
Subject To
 c0: x2 + 2 x8 - 2 x9 + x11 + 2 x16 = 1
 c1: x12 + x17 + 2 x18 + 2 x21 - 2 x22 = 1
 c2: - x1 - x4 - 2 x9 - 2 x12 - x20 = -1
 c3: - x4 - x7 + 2 x11 + x15 + 2 x18 = 0

Bounds
 0 <= x0 <= 1
 0 <= x1 <= 1
 0 <= x2 <= 1
 0 <= x3 <= 1
 0 <= x4 <= 1
 0 <= x5 <= 1
 0 <= x6 <= 1
 0 <= x7 <= 1
 0 <= x8 <= 1
 0 <= x9 <= 1
 0 <= x10 <= 1
 0 <= x11 <= 1
 0 <= x12 <= 1
 0 <= x13 <= 1
 0 <= x14 <= 1
 0 <= x15 <= 1
 0 <= x16 <= 1
 0 <= x17 <= 1
 0 <= x18 <= 1
 0 <= x19 <= 1
 0 <= x20 <= 1
 0 <= x21 <= 1
 0 <= x22 <= 1
 0 <= x23 <= 1

Binaries
 x0 x1 x2 x3 x4 x5 x6 x7 x8 x9 x10 x11 x12 x13 x14 x15 x16 x17 x18 x19 x20 x21
 x22 x23
End
